c NeuroCodeBench 2.0 CNF formula with verdict Unsat
p cnf 59 64
1 -7 40 -30 -52 -5 0
1 -7 40 30 -12 -5 46 0
1 7 24 -46 -21 0
-1 -40 -48 -35 -58 46 0
1 7 24 46 22 8 0
1 -7 -40 -37 45 -6 0
1 -7 -40 -37 -45 25 59 11 0
-1 -40 48 33 46 -45 -16 0
-1 -40 -48 35 50 57 -6 0
-1 -40 48 33 -46 56 0
1 7 -24 -32 34 -5 8 0
-1 -40 48 -33 10 39 -37 59 0
1 -7 -40 -37 45 6 0
-1 -40 48 -33 -10 59 -2 14 0
1 7 -24 -32 34 5 0
1 -7 40 30 -12 -5 -46 0
-1 -40 -48 -35 58 0
-1 -40 48 -33 -10 59 2 0
-1 -40 -48 -35 -58 -46 0
1 -7 -40 37 11 -15 -54 0
1 -7 -40 -37 -45 25 59 -11 0
-1 -40 48 33 46 45 20 0
1 7 24 46 22 -8 0
1 -7 -40 -37 -45 -25 -38 0
-1 -40 -48 35 50 -57 -47 0
1 7 -24 32 2 11 -36 0
-1 -40 48 -33 -10 59 -2 -14 0
1 7 -24 -32 -34 22 0
1 7 -24 -32 34 -5 -8 0
-1 -40 48 -33 10 39 37 0
1 -7 -40 -37 -45 -25 38 0
-1 -40 48 33 46 45 -20 0
1 7 24 -46 21 -3 0
-1 40 0
-1 -40 48 -33 -10 -59 0
-1 -40 -48 35 50 57 6 -2 -24 0
1 -7 -40 -37 -45 25 -59 0
1 -7 40 30 -12 5 0
1 7 24 -46 21 3 0
1 -7 40 -30 52 0
-1 -40 -48 35 50 -57 47 0
1 -7 40 30 12 -56 48 0
-1 -40 48 33 46 -45 16 0
1 7 24 46 -22 0
1 -7 40 30 12 -56 -48 20 0
1 7 -24 32 2 -11 0
1 -7 40 30 12 -56 -48 -20 0
1 7 -24 32 2 11 36 0
1 -7 -40 37 11 15 0
-1 -40 -48 35 50 57 6 -2 24 0
-1 -40 48 -33 10 -39 49 0
1 7 -24 32 -2 58 0
-1 -40 -48 35 -50 0
1 -7 -40 37 -11 0
1 7 -24 32 -2 -58 0
1 -7 -40 37 11 -15 54 0
1 7 -24 -32 -34 -22 0
-1 -40 48 33 -46 -56 0
1 -7 40 30 12 56 0
-1 -40 -48 35 50 57 6 2 0
-1 -40 48 -33 10 39 -37 -59 0
-1 -40 48 -33 10 -39 -49 0
1 -7 40 -30 -52 5 58 0
1 -7 40 -30 -52 5 -58 0
